desiredZ=[1];
nNurses = 136;
hours = 51;
demand = [19 16 22 27 6 18 9 6 7 26 31 14 5 6 10 12 30 17 16 21 6 12 14 2 10 19 20 9 2 19 5 0 32 24 31 10 26 28 21 1 9 12 14 19 6 7 0 13 3 7 0];
minHours = 17;
maxHours = 30;
maxConsec = 16;
maxPresence = 35;